3 3 2
25 2 52 1 4 2 42 0 1 1 93 2 34 1 97 0 74 2 73 0 43 2 22 1 99 0 83 2 90 1 89 0 38 2 93 1 85 2 20 1 17 0 60 2 74 1 31 0 71 2 9 
25 1 36 0 27 1 46 2 58 1 5 0 6 1 25 0 88 2 74 0 46 2 17 1 9 0 18 2 87 0 5 2 94 0 11 2 52 0 22 2 79 1 51 0 32 1 22 2 63 1 70 
25 0 20 2 44 0 71 1 57 0 2 1 8 0 4 2 52 1 61 2 88 0 40 1 64 2 32 1 72 2 89 1 16 0 57 1 27 2 66 0 82 1 34 0 49 1 65 2 57 0 13 

-------------
